AES/1_3_4/ssaes_r1-20_c3_rw1_e4_f0_k1-20_aes_canon_box_aes_mc_bidirectional/ExperimentMinisat_r15_k4cnf_2011-10-29-152013/Result
WARNING: for repeatability, setting FPU to use double precision
============================[ Problem Statistics ]=============================
|                                                                             |
|  Number of variables:          1836                                         |
|  Number of clauses:           10908                                         |
|  Parse time:                   0.00 s                                       |
|  Eliminated clauses:           0.02 Mb                                      |
|  Simplification time:          0.01 s                                       |
|                                                                             |
=============================[ Search Statistics ]==============================
| Conflicts  |          ORIGINAL         |          LEARNT          | Progress |
|            |    Vars  Clauses Literals |    Limit  Clauses Lit/Cl |          |
================================================================================
|        100 |    1500     9996    31044 |     3665      100     16 |  4.576 % |
|        250 |    1500     9996    31044 |     4031      250     17 |  4.575 % |
|        475 |    1500     9996    31044 |     4434      475     16 |  4.575 % |
|        812 |    1500     9996    31044 |     4878      812     15 |  4.575 % |
|       1318 |    1500     9996    31044 |     5366     1318     15 |  4.575 % |
|       2077 |    1500     9996    31044 |     5902     2077     15 |  4.575 % |
|       3216 |    1500     9996    31044 |     6493     3216     16 |  4.575 % |
|       4924 |    1500     9996    31044 |     7142     4924     15 |  4.575 % |
===============================================================================
restarts              : 29
conflicts             : 5254           (9013 /sec)
decisions             : 6030           (0.00 % random) (10345 /sec)
propagations          : 3966405        (6804478 /sec)
conflict literals     : 79333          (69.97 % deleted)
Memory used           : 9.00 MB
CPU time              : 0.582911 s

SATISFIABLE
